Welcome to the CBC MILP Solver
Version: Devel (unstable)
Build Date: Feb  6 2022
command line - -import /home/danilo/psp-janniele/J30/j3063/j3063_6.lp -timeM elapsed -seconds 10800 -solve -quit (default strategy 1)
seconds was changed from 1e+08 to 10800
Continuous objective value is 0 - 0.082276 seconds
Cgl0002I 14 variables fixed
Cgl0003I 0 fixed, 0 tightened bounds, 9 strengthened rows, 0 substitutions
Cgl0003I 0 fixed, 0 tightened bounds, 9 strengthened rows, 0 substitutions
Cgl0003I 0 fixed, 0 tightened bounds, 9 strengthened rows, 0 substitutions
Cgl0003I 0 fixed, 0 tightened bounds, 7 strengthened rows, 0 substitutions
Cgl0003I 0 fixed, 0 tightened bounds, 7 strengthened rows, 0 substitutions
Cgl0003I 0 fixed, 0 tightened bounds, 7 strengthened rows, 0 substitutions
Cgl0003I 0 fixed, 0 tightened bounds, 7 strengthened rows, 0 substitutions
Cgl0003I 0 fixed, 0 tightened bounds, 7 strengthened rows, 0 substitutions
Cgl0003I 0 fixed, 0 tightened bounds, 7 strengthened rows, 0 substitutions
Cgl0004I processed model has 277 rows, 780 columns (780 integer (780 of which binary)) and 12464 elements
Coin3009W Conflict graph built in 0.036 seconds, density: 1.255%
Cgl0015I Clique Strengthening extended 0 cliques, 0 were dominated
Cbc0045I No integer variables out of 780 objects (780 integer) have costs
Cbc0045I branch on satisfied N create fake objective Y random cost Y
Cbc0038I Initial state - 51 integers unsatisfied sum - 11.657
Cbc0038I Pass   1: suminf.    2.40589 (16) obj. 0 iterations 125
Cbc0038I Pass   2: suminf.    2.39550 (11) obj. 0 iterations 141
Cbc0038I Pass   3: suminf.    1.48810 (7) obj. 0 iterations 16
Cbc0038I Pass   4: suminf.    1.27381 (4) obj. 0 iterations 78
Cbc0038I Pass   5: suminf.    1.27381 (4) obj. 0 iterations 0
Cbc0038I Pass   6: suminf.    0.91667 (5) obj. 0 iterations 55
Cbc0038I Pass   7: suminf.    8.98741 (30) obj. 0 iterations 157
Cbc0038I Pass   8: suminf.    1.77583 (11) obj. 0 iterations 149
Cbc0038I Pass   9: suminf.    1.40000 (8) obj. 0 iterations 30
Cbc0038I Pass  10: suminf.    2.77619 (13) obj. 0 iterations 81
Cbc0038I Pass  11: suminf.    2.71667 (14) obj. 0 iterations 23
Cbc0038I Pass  12: suminf.    2.28014 (10) obj. 0 iterations 66
Cbc0038I Pass  13: suminf.    1.50000 (6) obj. 0 iterations 60
Cbc0038I Pass  14: suminf.    1.81944 (5) obj. 0 iterations 35
Cbc0038I Pass  15: suminf.    1.62121 (6) obj. 0 iterations 43
Cbc0038I Pass  16: suminf.    1.84656 (7) obj. 0 iterations 51
Cbc0038I Pass  17: suminf.    1.35714 (5) obj. 0 iterations 39
Cbc0038I Pass  18: suminf.    1.76923 (7) obj. 0 iterations 49
Cbc0038I Pass  19: suminf.    1.76923 (7) obj. 0 iterations 37
Cbc0038I Pass  20: suminf.    1.51814 (8) obj. 0 iterations 53
Cbc0038I Pass  21: suminf.    1.47889 (7) obj. 0 iterations 19
Cbc0038I Pass  22: suminf.    2.58615 (10) obj. 0 iterations 65
Cbc0038I Pass  23: suminf.    1.70942 (9) obj. 0 iterations 69
Cbc0038I Pass  24: suminf.    1.50000 (4) obj. 0 iterations 84
Cbc0038I Pass  25: suminf.    1.35714 (5) obj. 0 iterations 68
Cbc0038I Pass  26: suminf.    1.76923 (7) obj. 0 iterations 54
Cbc0038I Pass  27: suminf.    1.76923 (7) obj. 0 iterations 30
Cbc0038I Pass  28: suminf.    1.51814 (8) obj. 0 iterations 52
Cbc0038I Pass  29: suminf.    1.47889 (7) obj. 0 iterations 26
Cbc0038I Pass  30: suminf.    2.58615 (10) obj. 0 iterations 77
Cbc0038I Pass  31: suminf.    1.70942 (9) obj. 0 iterations 90
Cbc0038I Pass  32: suminf.    1.50000 (4) obj. 0 iterations 83
Cbc0038I Pass  33: suminf.    1.35714 (5) obj. 0 iterations 69
Cbc0038I Pass  34: suminf.    1.76923 (7) obj. 0 iterations 64
Cbc0038I Pass  35: suminf.    1.76923 (7) obj. 0 iterations 28
Cbc0038I Pass  36: suminf.    1.51814 (8) obj. 0 iterations 55
Cbc0038I Pass  37: suminf.    1.47889 (7) obj. 0 iterations 20
Cbc0038I Pass  38: suminf.    2.58615 (10) obj. 0 iterations 68
Cbc0038I Pass  39: suminf.    1.70942 (9) obj. 0 iterations 68
Cbc0038I Pass  40: suminf.    1.50000 (4) obj. 0 iterations 85
Cbc0038I Pass  41: suminf.    1.35714 (5) obj. 0 iterations 59
Cbc0038I Pass  42: suminf.    1.76923 (7) obj. 0 iterations 58
Cbc0038I Pass  43: suminf.    1.76923 (7) obj. 0 iterations 29
Cbc0038I Pass  44: suminf.    1.51814 (8) obj. 0 iterations 55
Cbc0038I Pass  45: suminf.    1.47889 (7) obj. 0 iterations 23
Cbc0038I Pass  46: suminf.    2.58615 (10) obj. 0 iterations 73
Cbc0038I Pass  47: suminf.    1.70942 (9) obj. 0 iterations 70
Cbc0038I Pass  48: suminf.    1.50000 (4) obj. 0 iterations 108
Cbc0038I Pass  49: suminf.    1.35714 (5) obj. 0 iterations 80
Cbc0038I Pass  50: suminf.    1.76923 (7) obj. 0 iterations 52
Cbc0038I Pass  51: suminf.    1.76923 (7) obj. 0 iterations 34
Cbc0038I Pass  52: suminf.    1.51814 (8) obj. 0 iterations 57
Cbc0038I Pass  53: suminf.    1.47889 (7) obj. 0 iterations 25
Cbc0038I Pass  54: suminf.    2.58615 (10) obj. 0 iterations 73
Cbc0038I Pass  55: suminf.    1.70942 (9) obj. 0 iterations 65
Cbc0038I Pass  56: suminf.    1.50000 (4) obj. 0 iterations 103
Cbc0038I Pass  57: suminf.    1.35714 (5) obj. 0 iterations 64
Cbc0038I Pass  58: suminf.    1.76923 (7) obj. 0 iterations 51
Cbc0038I Pass  59: suminf.    1.76923 (7) obj. 0 iterations 26
Cbc0038I Pass  60: suminf.    1.51814 (8) obj. 0 iterations 57
Cbc0038I Pass  61: suminf.    1.47889 (7) obj. 0 iterations 17
Cbc0038I Pass  62: suminf.    2.58615 (10) obj. 0 iterations 69
Cbc0038I Pass  63: suminf.    1.70942 (9) obj. 0 iterations 66
Cbc0038I Pass  64: suminf.    1.50000 (4) obj. 0 iterations 87
Cbc0038I Pass  65: suminf.    1.50000 (6) obj. 0 iterations 35
Cbc0038I Pass  66: suminf.    1.81944 (5) obj. 0 iterations 36
Cbc0038I Pass  67: suminf.    1.62121 (6) obj. 0 iterations 38
Cbc0038I Pass  68: suminf.    1.84656 (7) obj. 0 iterations 57
Cbc0038I Pass  69: suminf.    1.35714 (5) obj. 0 iterations 47
Cbc0038I Pass  70: suminf.    1.76923 (7) obj. 0 iterations 52
Cbc0038I Pass  71: suminf.    1.76923 (7) obj. 0 iterations 22
Cbc0038I Pass  72: suminf.    1.51814 (8) obj. 0 iterations 47
Cbc0038I Pass  73: suminf.    1.47889 (7) obj. 0 iterations 18
Cbc0038I Pass  74: suminf.    2.58615 (10) obj. 0 iterations 72
Cbc0038I Pass  75: suminf.    1.70942 (9) obj. 0 iterations 70
Cbc0038I Pass  76: suminf.    1.50000 (4) obj. 0 iterations 90
Cbc0038I Pass  77: suminf.    1.35714 (5) obj. 0 iterations 71
Cbc0038I Pass  78: suminf.    1.76923 (7) obj. 0 iterations 59
Cbc0038I Pass  79: suminf.    1.76923 (7) obj. 0 iterations 28
Cbc0038I Pass  80: suminf.    1.51814 (8) obj. 0 iterations 46
Cbc0038I Pass  81: suminf.    1.47889 (7) obj. 0 iterations 24
Cbc0038I Pass  82: suminf.    2.58615 (10) obj. 0 iterations 81
Cbc0038I Pass  83: suminf.    1.70942 (9) obj. 0 iterations 86
Cbc0038I Pass  84: suminf.    1.50000 (4) obj. 0 iterations 106
Cbc0038I Pass  85: suminf.    1.35714 (5) obj. 0 iterations 76
Cbc0038I Pass  86: suminf.    1.76923 (7) obj. 0 iterations 77
Cbc0038I Pass  87: suminf.    1.76923 (7) obj. 0 iterations 34
Cbc0038I Pass  88: suminf.    1.51814 (8) obj. 0 iterations 58
Cbc0038I Pass  89: suminf.    1.47889 (7) obj. 0 iterations 30
Cbc0038I Pass  90: suminf.    2.58615 (10) obj. 0 iterations 83
Cbc0038I Pass  91: suminf.    1.70942 (9) obj. 0 iterations 89
Cbc0038I Pass  92: suminf.    1.50000 (4) obj. 0 iterations 97
Cbc0038I Pass  93: suminf.    1.35714 (5) obj. 0 iterations 84
Cbc0038I Pass  94: suminf.    1.76923 (7) obj. 0 iterations 82
Cbc0038I Pass  95: suminf.    1.76923 (7) obj. 0 iterations 39
Cbc0038I Pass  96: suminf.    1.51814 (8) obj. 0 iterations 54
Cbc0038I Pass  97: suminf.    1.47889 (7) obj. 0 iterations 19
Cbc0038I Pass  98: suminf.    2.58615 (10) obj. 0 iterations 81
Cbc0038I Pass  99: suminf.    1.70942 (9) obj. 0 iterations 83
Cbc0038I Pass 100: suminf.    9.65028 (32) obj. 0 iterations 135
Cbc0038I No solution found this major pass
Cbc0038I Before mini branch and bound, 647 integers at bound fixed and 0 continuous
Cbc0038I Full problem 277 rows 780 columns, reduced to 128 rows 95 columns
Cbc0038I Mini branch and bound improved solution from 1.79769e+308 to 0 (2.77 seconds)
Cbc0038I After 2.77 seconds - Feasibility pump exiting with objective of 0 - took 1.14 seconds
Cbc0012I Integer solution of 0 found by feasibility pump after 0 iterations and 0 nodes (2.77 seconds)
Cbc0001I Search completed - best objective 0, took 0 iterations and 0 nodes (2.77 seconds)
Cbc0035I Maximum depth 0, 0 variables fixed on reduced cost
Cuts at root node changed objective from 0 to 0
Probing was tried 0 times and created 0 cuts of which 0 were active after adding rounds of cuts (0 seconds)
Gomory was tried 0 times and created 0 cuts of which 0 were active after adding rounds of cuts (0 seconds)
Knapsack was tried 0 times and created 0 cuts of which 0 were active after adding rounds of cuts (0 seconds)
Clique was tried 0 times and created 0 cuts of which 0 were active after adding rounds of cuts (0 seconds)
OddWheel was tried 0 times and created 0 cuts of which 0 were active after adding rounds of cuts (0 seconds)
MixedIntegerRounding2 was tried 0 times and created 0 cuts of which 0 were active after adding rounds of cuts (0 seconds)
FlowCover was tried 0 times and created 0 cuts of which 0 were active after adding rounds of cuts (0 seconds)
TwoMirCuts was tried 0 times and created 0 cuts of which 0 were active after adding rounds of cuts (0 seconds)
ZeroHalf was tried 0 times and created 0 cuts of which 0 were active after adding rounds of cuts (0 seconds)

Result - Optimal solution found
Objective value:                0
Enumerated nodes:               0
Total iterations:               0
Time (CPU seconds):             2.86038
Time (Wallclock seconds):       2.81135
Total time (CPU seconds):       2.87375   (Wallclock seconds):       2.83094
